Optimal - objective value 65887.00000000
      3 x4                    85                       0
      6 x7                    64                       0
     11 x12                  106                       0
     23 x24                  149                       0
     34 x35                  166                       0
     43 x44                  183                       0
     53 x54                    1                    2772
     56 x57                    1                    6893
     61 x62                    1                     500
     73 x74                    1                   11004
     84 x85                    1                   11892
     93 x94                    1                    5932
    103 x104                  27                       0
    104 x105                  22                       0
    106 x107                  58                       0
    107 x108                  29                       0
    111 x112                  68                       0
    112 x113                  48                       0
    113 x114                  42                       0
    114 x115                  16                       0
    115 x116                   4                       0
    123 x124                  76                       0
    124 x125                  63                       0
    125 x126                  52                       0
    126 x127                  27                       0
    127 x128                  13                       0
    128 x129                   5                       0
    134 x135                  76                       0
    135 x136                  58                       0
    136 x137                  38                       0
    137 x138                   8                       0
    143 x144                 101                       0
    144 x145                  92                       0
    145 x146                  79                       0
    146 x147                  49                       0
    147 x148                  44                       0
    148 x149                  30                       0
    149 x150                  16                       0
    150 x151                  33                       0
    151 x152                  40                       0
    158 x159                  17                       0
    159 x160                  22                       0
    166 x167                   2                       0
    167 x168                   3                       0
    168 x169                  22                       0
    169 x170                  41                       0
    170 x171                  53                       0
    171 x172                  70                       0
    179 x180                  22                       0
    180 x181                  45                       0
    181 x182                  59                       0
    182 x183                  88                       0
    188 x189                  10                       0
    189 x190                  26                       0
    190 x191                  30                       0
    191 x192                  55                       0
    199 x200                  58                       0
    207 x208                 152                       0
    218 x219                 128                       0
    227 x228                 195                       0
    245 x246                 230                       0
    249 x250                   1         9361.99999999999
    257 x258                   1                    1560
    268 x269                   1                   19712
    277 x278                   1                    4002
    295 x296                   1                    6041
    299 x300                  32                       0
    300 x301                  29                       0
    301 x302                  27                       0
    307 x308                  72                       0
    308 x309                  54                       0
    309 x310                  42                       0
    310 x311                  38                       0
    311 x312                  15                       0
    312 x313                   5                       0
    318 x319                  62                       0
    319 x320                  51                       0
    320 x321                  47                       0
    321 x322                  30                       0
    327 x328                 113                       0
    328 x329                  92                       0
    329 x330                  91                       0
    330 x331                  85                       0
    331 x332                  62                       0
    332 x333                  60                       0
    333 x334                  58                       0
    334 x335                  28                       0
    335 x336                  15                       0
    345 x346                  41                       0
    346 x347                  26                       0
    347 x348                  23                       0
    352 x353                  15                       0
    353 x354                  27                       0
    354 x355                  40                       0
    355 x356                  61                       0
    363 x364                   2                       0
    364 x365                  23                       0
    365 x366                  27                       0
    366 x367                  36                       0
    372 x373                   4                       0
    373 x374                  33                       0
    374 x375                  62                       0
    375 x376                  70                       0
    386 x387                  20                       0
    387 x388                  43                       0
    388 x389                  67                       0
    389 x390                  90                       0
    390 x391                 116                       0
    391 x392                 132                       0
    392 x393                 157                       0
    393 x394                 180                       0
    401 x402                 193                       0
    409 x410                 191                       0
    421 x422                 233                       0
    438 x439                 246                       0
    451 x452                   1                    9392
    459 x460                   1                    1000
    471 x472                   1                    8971
    488 x489                   1                    1000
    501 x502                  85                       0
    502 x503                  70                       0
    503 x504                  49                       0
    504 x505                  23                       0
    509 x510                 114                       0
    510 x511                 113                       0
    511 x512                  97                       0
    512 x513                  82                       0
    513 x514                  60                       0
    514 x515                  40                       0
    515 x516                  11                       0
    521 x522                 139                       0
    522 x523                 120                       0
    523 x524                  98                       0
    524 x525                  69                       0
    525 x526                  43                       0
    526 x527                  34                       0
    527 x528                  27                       0
    528 x529                  25                       0
    529 x530                  18                       0
    538 x539                  84                       0
    539 x540                  83                       0
    540 x541                  79                       0
    541 x542                  58                       0
    542 x543                  50                       0
    543 x544                  31                       0
    544 x545                  19                       0
    545 x546                   9                       0
    546 x547                  16                       0
    547 x548                  45                       0
    548 x549                  57                       0
    549 x550                  80                       0
    555 x556                  24                       0
    556 x557                  40                       0
    557 x558                  55                       0
    566 x567                   4                       0
    567 x568                  18                       0
    568 x569                  43                       0
    569 x570                  73                       0
    580 x581                  16                       0
    581 x582                  42                       0
    582 x583                  45                       0
    583 x584                  73                       0
    584 x585                  95                       0
    585 x586                 112                       0
    586 x587                 133                       0
    596 x597                 103                       0
    604 x605                  94                       0
    612 x613                 106                       0
    622 x623                 205                       0
    633 x634                 204                       0
    646 x647                   1                     759
    654 x655                   1                    5788
    662 x663                   1                    4341
    672 x673                   1                    9789
    683 x684                   1                   11434
    696 x697                  58                       0
    697 x698                  35                       0
    698 x699                  26                       0
    699 x700                   5                       0
    704 x705                  53                       0
    705 x706                  40                       0
    706 x707                  38                       0
    707 x708                  31                       0
    708 x709                  20                       0
    712 x713                  63                       0
    713 x714                  44                       0
    714 x715                  24                       0
    715 x716                   2                       0
    722 x723                 109                       0
    723 x724                  97                       0
    724 x725                  88                       0
    725 x726                  64                       0
    726 x727                  38                       0
    727 x728                   8                       0
    733 x734                 145                       0
    734 x735                 138                       0
    735 x736                 110                       0
    736 x737                  98                       0
    737 x738                  89                       0
    738 x739                  85                       0
    739 x740                  62                       0
    740 x741                  42                       0
    741 x742                  24                       0
    742 x743                   3                       0
    743 x744                   9                       0
    744 x745                  23                       0
    750 x751                  19                       0
    751 x752                  23                       0
    752 x753                  27                       0
    759 x760                  22                       0
    760 x761                  29                       0
    766 x767                  10                       0
    767 x768                  32                       0
    768 x769                  59                       0
    769 x770                  60                       0
    770 x771                  81                       0
    778 x779                   4                       0
    779 x780                  17                       0
    780 x781                  29                       0
    781 x782                  51                       0
    799 x800                 195                       0
    808 x809                 202                       0
    824 x825                 217                       0
    838 x839                 172                       0
    849 x850                   1                    2341
    858 x859                   1                    2041
    874 x875                   1                    1500
    888 x889                   1                    1815
    899 x900                  57                       0
    900 x901                  30                       0
    901 x902                  28                       0
    902 x903                   5                       0
    908 x909                 112                       0
    909 x910                  82                       0
    910 x911                  54                       0
    911 x912                  50                       0
    912 x913                  42                       0
    913 x914                  38                       0
    914 x915                  15                       0
    915 x916                   4                       0
    924 x925     98.9999999999999                       0
    925 x926                  89                       0
    926 x927                  65                       0
    927 x928                  38                       0
    928 x929                  22                       0
    929 x930                  11                       0
    930 x931                   4                       0
    938 x939                  62                       0
    939 x940                  42                       0
    940 x941                  25                       0
    941 x942                  28                       0
    942 x943                  38                       0
    943 x944                  62                       0
    944 x945                  83                       0
    945 x946                 102                       0
    946 x947                 109                       0
    947 x948                 127                       0
    953 x954                  17                       0
    954 x955                  35                       0
    955 x956                  61                       0
    956 x957                  77                       0
    966 x967                  27                       0
    967 x968                  30                       0
    968 x969                  53                       0
    969 x970                  59                       0
    970 x971                  74                       0
    971 x972                  99                       0
    972 x973                 102                       0
    981 x982                   4                       0
    982 x983                  33                       0
    983 x984                  41                       0
    984 x985                  62                       0
    985 x986                  78                       0
    986 x987                 104                       0
